3 = number of variables
4 = number of blocks
2 2 2 2 = blocksizes (negative sign for LP-block, size of LP-block equals the number of LP-constraints)
1 1 -1
1 1 1 1 1
2 1 2 2 1
3 1 1 2 1
0 2 1 1 -1
0 2 2 2 -2
1 2 1 2 1
3 3 1 1 1
0 3 2 2 -1
1 3 1 2 1
0 4 1 1 -2
3 4 2 2 1.5
2 4 1 2 1
0 4 1 2 -0.5
*INTEGER
*1
*2
